(declare-fun |id#2@1| () BitVec)
(declare-fun |id#0@1| () BitVec)
(assert (and (= |id#2@1| #b00000000000000000000000000001010) (not (= (bvadd |id#2@1| #b00000000000000000000000000000001) (bvsub |id#0@1| #b00000000000000000000000000000001))) (bvsle |id#2@1| #b00000000000000000000000000001010) (bvsle #b00000000000000000000000000000000 |id#2@1|) (not (= |id#0@1| |id#2@1|)) (bvsle #b00000000000000000000000000000000 |id#0@1|) (= (bvadd |id#2@1| #b00000000000000000000000000000001) #b00000000000000000000000000001011) (bvsle |id#0@1| #b00000000000000000000000000001010)))
(check-sat)
(get-model)
(exit)